(set-info :smt-lib-version 2.7)
(set-logic QF_SNIA)
(set-info :source  | 
Generated by: Johannes Bauer
Generated on: 2026-06-21
Generator: mgm A12 Test Data Generator
Application: ELSTER
Target solver: Z3, CVC5
Script is based on the ELSTER form: capital gains tax registration (A / KapEStInvStG)
Characteristic of the form: easy.
In this script, all terms of the form (* x1 x2 x3 ...) are in the form (* x1 c2 c3 ...),
all terms of the form (div x y) are in the form (div x c) and the symbol mod is exclusively used in the form (mod x c),
where x, y, and x1, x2, x3 ... are free constants and c, c2, c3 ... are terms in the form n or (-n) for some numeral n.
The script starts with the base constraints, which define a valid data set for the corresponding form. After the first (push 1), control constraints follow.
The goal of the control constraints in this script is to fill up a data set with values, after the characteristics of the high test coverage were placed.
number variables: 191, number constraints: 187
"https://www.elster.de/eportal/start?locale=en_US"
"https://www.mgm-tp.com/q12-tdg.html"
"https://a12.ai/public-sector"
|)
(set-info :license "https://creativecommons.org/licenses/by/4.0/")
(set-info :category "industrial")
(set-info :major-phase |variable declarations|)
(declare-fun S1-S () String)
(declare-fun S2-S () String)
(declare-fun B3-F () Bool)
(declare-fun S3-S () String)
(declare-fun B4-F () Bool)
(declare-fun B5-F () Bool)
(declare-fun B6-F () Bool)
(declare-fun B7-F () Bool)
(declare-fun I7-y () Int)
(declare-fun B8-F () Bool)
(declare-fun S8-S () String)
(declare-fun B9-F () Bool)
(declare-fun I10 () Int)
(declare-fun I11 () Int)
(declare-fun I12 () Int)
(declare-fun I13 () Int)
(declare-fun I14 () Int)
(declare-fun I15 () Int)
(declare-fun I16 () Int)
(declare-fun I17 () Int)
(declare-fun I18 () Int)
(declare-fun B19-F () Bool)
(declare-fun I19-s-y () Int)
(declare-fun I19-s-m () Int)
(declare-fun I19-s-d () Int)
(declare-fun I19-e-y () Int)
(declare-fun I19-e-m () Int)
(declare-fun I19-e-d () Int)
(declare-fun B20-F () Bool)
(declare-fun I20-y () Int)
(declare-fun I20-m () Int)
(declare-fun I20-d () Int)
(declare-fun B21-F () Bool)
(declare-fun I21-y () Int)
(declare-fun I21-m () Int)
(declare-fun I21-d () Int)
(declare-fun B22-F () Bool)
(declare-fun B23-F () Bool)
(declare-fun B24-F () Bool)
(declare-fun B25-F () Bool)
(declare-fun B26-F () Bool)
(declare-fun B27-F () Bool)
(declare-fun B28-F () Bool)
(declare-fun B29-F () Bool)
(declare-fun I29 () Int)
(declare-fun B30-F () Bool)
(declare-fun I30 () Int)
(declare-fun B31-F () Bool)
(declare-fun I31 () Int)
(declare-fun B32-F () Bool)
(declare-fun B33-F () Bool)
(declare-fun I33-s-y () Int)
(declare-fun I33-s-m () Int)
(declare-fun I33-s-d () Int)
(declare-fun I33-e-y () Int)
(declare-fun I33-e-m () Int)
(declare-fun I33-e-d () Int)
(declare-fun B34-F () Bool)
(declare-fun I34-y () Int)
(declare-fun I34-m () Int)
(declare-fun I34-d () Int)
(declare-fun B35-F () Bool)
(declare-fun I35-y () Int)
(declare-fun I35-m () Int)
(declare-fun I35-d () Int)
(declare-fun B36-F () Bool)
(declare-fun B37-F () Bool)
(declare-fun B38-F () Bool)
(declare-fun I38 () Int)
(declare-fun B39-F () Bool)
(declare-fun I39 () Int)
(declare-fun B40-F () Bool)
(declare-fun I40 () Int)
(declare-fun B41-F () Bool)
(declare-fun B42-F () Bool)
(declare-fun B43-F () Bool)
(declare-fun I43 () Int)
(declare-fun B44-F () Bool)
(declare-fun I44 () Int)
(declare-fun B45-F () Bool)
(declare-fun I45 () Int)
(declare-fun B46-F () Bool)
(declare-fun B47-F () Bool)
(declare-fun B48-F () Bool)
(declare-fun I48 () Int)
(declare-fun B49-F () Bool)
(declare-fun B50-F () Bool)
(declare-fun I50 () Int)
(declare-fun S51-S () String)
(declare-fun I52-y () Int)
(declare-fun I52-m () Int)
(declare-fun I52-d () Int)
(declare-fun B53-F () Bool)
(declare-fun I53-y () Int)
(declare-fun I53-m () Int)
(declare-fun I53-d () Int)
(declare-fun B54-F () Bool)
(declare-fun I54-y () Int)
(declare-fun I54-m () Int)
(declare-fun I54-d () Int)
(declare-fun B55-F () Bool)
(declare-fun B56-F () Bool)
(declare-fun B57-F () Bool)
(declare-fun B58-F () Bool)
(declare-fun I58 () Int)
(declare-fun B59-F () Bool)
(declare-fun B60-F () Bool)
(declare-fun B61-F () Bool)
(declare-fun B62-F () Bool)
(declare-fun I62 () Int)
(declare-fun B63-F () Bool)
(declare-fun I63 () Int)
(declare-fun B64-F () Bool)
(declare-fun I64 () Int)
(declare-fun B65-F () Bool)
(declare-fun I65-y () Int)
(declare-fun I65-m () Int)
(declare-fun I65-d () Int)
(declare-fun B66-F () Bool)
(declare-fun B67-F () Bool)
(declare-fun B68-F () Bool)
(declare-fun B69-F () Bool)
(declare-fun I69 () Int)
(declare-fun B70-F () Bool)
(declare-fun I70 () Int)
(declare-fun B71-F () Bool)
(declare-fun I71 () Int)
(declare-fun B72-F () Bool)
(declare-fun B73-F () Bool)
(declare-fun B74-F () Bool)
(declare-fun I74 () Int)
(declare-fun B75-F () Bool)
(declare-fun I75 () Int)
(declare-fun B76-F () Bool)
(declare-fun I76 () Int)
(declare-fun B77-F () Bool)
(declare-fun B78-F () Bool)
(declare-fun B79-F () Bool)
(declare-fun I79 () Int)
(declare-fun B80-F () Bool)
(declare-fun I80 () Int)
(declare-fun B81-F () Bool)
(declare-fun I81 () Int)
(declare-fun B82-F () Bool)
(declare-fun I83 () Int)
(declare-fun B84-F () Bool)
(declare-fun I84-y () Int)
(declare-fun I84-m () Int)
(declare-fun I84-d () Int)
(declare-fun B85-F () Bool)
(declare-fun B86-F () Bool)
(declare-fun I86 () Int)
(declare-fun B87-F () Bool)
(declare-fun I87 () Int)
(declare-fun B88-F () Bool)
(declare-fun I88 () Int)
(declare-fun B89-F () Bool)
(declare-fun I89 () Int)
(declare-fun B90-F () Bool)
(declare-fun B91-F () Bool)
(declare-fun B92-F () Bool)
(declare-fun B93-F () Bool)
(declare-fun I93 () Int)
(declare-fun B94-F () Bool)
(declare-fun I94 () Int)
(declare-fun B95-F () Bool)
(declare-fun I95 () Int)
(declare-fun B96-F () Bool)
(declare-fun B97-F () Bool)
(declare-fun I97 () Int)
(declare-fun B98-F () Bool)
(declare-fun I98 () Int)
(declare-fun B99-F () Bool)
(declare-fun I99 () Int)
(declare-fun B100-F () Bool)
(declare-fun I100 () Int)
(declare-fun B101-F () Bool)
(declare-fun B102-F () Bool)
(declare-fun I102 () Int)
(declare-fun I103 () Int)
(declare-fun B104-F () Bool)
(declare-fun B105-F () Bool)
(declare-fun B106-F () Bool)
(declare-fun B107-F () Bool)
(declare-fun B108-F () Bool)
(declare-fun B109-F () Bool)
(declare-fun B110-F () Bool)
(declare-fun B111-F () Bool)
(declare-fun B112-F () Bool)
(declare-fun B113-F () Bool)
(declare-fun B114-F () Bool)
(set-info :major-phase |base constraints|)
(set-info :base-constraint-type |constraints defining hierarchy (group is filled, if a child is filled)|)
(assert (not (or B84-F B85-F)))
(assert (= B85-F (or B86-F B87-F)))
(assert (= B104-F (or B105-F B106-F)))
(assert (= B55-F (or B56-F B57-F B58-F B59-F)))
(assert (= B60-F (or B61-F B62-F B63-F B64-F)))
(assert (= B67-F (or B68-F B69-F B70-F B71-F)))
(assert (= B72-F (or B73-F B74-F B75-F B76-F)))
(assert (= B77-F (or B78-F B79-F B80-F B81-F)))
(assert (or B19-F B20-F B21-F B22-F B27-F))
(assert (= B22-F (or B23-F B24-F B25-F B26-F)))
(assert (= B27-F (or B28-F B29-F B30-F B31-F)))
(assert (= B32-F (or B33-F B34-F B35-F B36-F B41-F B46-F)))
(assert (= B36-F (or B37-F B38-F B39-F B40-F)))
(assert (= B41-F (or B42-F B43-F B44-F B45-F)))
(assert (= B46-F (or B47-F B48-F B49-F B50-F)))
(assert (= B107-F (or B108-F B109-F)))
(assert (= B109-F (or B110-F B111-F B112-F B113-F)))
(assert (or B88-F B89-F B90-F B91-F B92-F B93-F B94-F B95-F B96-F B97-F B98-F B99-F B100-F B101-F B102-F))
(set-info :base-constraint-type |domainconstraints number-fields|)
(assert (ite B86-F (and (<= I86 999999999999) (>= I86 0)) (= I86 0)))
(assert (ite B87-F (and (<= I87 999999999999) (>= I87 0)) (= I87 0)))
(assert (and (<= I83 99999999999999) (>= I83 (- 99999999999999))))
(assert (= I10 0))
(assert (= I11 0))
(assert (= I12 0))
(assert (= I13 0))
(assert (= I14 0))
(assert (= I15 0))
(assert (= I16 0))
(assert (= I17 0))
(assert (= I18 0))
(assert (ite B57-F true false))
(assert (ite B58-F (and (<= I58 999999999999) (>= I58 (- 999999999999))) (= I58 0)))
(assert (ite B59-F true false))
(assert (ite B62-F (and (<= I62 999999999999) (>= I62 (- 999999999999))) (= I62 0)))
(assert (ite B63-F (and (<= I63 999999999999) (>= I63 (- 999999999999))) (= I63 0)))
(assert (ite B64-F (and (<= I64 99999999999999) (>= I64 (- 99999999999999))) (= I64 0)))
(assert (ite B69-F (and (<= I69 999999999999) (>= I69 0)) (= I69 0)))
(assert (ite B70-F (and (<= I70 999999999999) (>= I70 0)) (= I70 0)))
(assert (ite B71-F (and (<= I71 99999999999999) (>= I71 0)) (= I71 0)))
(assert (ite B74-F (and (<= I74 999999999999) (>= I74 0)) (= I74 0)))
(assert (ite B75-F (and (<= I75 999999999999) (>= I75 0)) (= I75 0)))
(assert (ite B76-F (and (<= I76 99999999999999) (>= I76 0)) (= I76 0)))
(assert (ite B79-F (and (<= I79 999999999999) (>= I79 0)) (= I79 0)))
(assert (ite B80-F (and (<= I80 999999999999) (>= I80 0)) (= I80 0)))
(assert (ite B81-F (and (<= I81 99999999999999) (>= I81 0)) (= I81 0)))
(assert (ite B82-F true false))
(assert (ite B24-F true false))
(assert (ite B25-F true false))
(assert (ite B26-F true false))
(assert (ite B29-F (and (<= I29 999999999999) (>= I29 (- 999999999999))) (= I29 0)))
(assert (ite B30-F (and (<= I30 999999999999) (>= I30 (- 999999999999))) (= I30 0)))
(assert (ite B31-F (and (<= I31 99999999999999) (>= I31 (- 99999999999999))) (= I31 0)))
(assert (ite B38-F (and (<= I38 999999999999) (>= I38 (- 999999999999))) (= I38 0)))
(assert (ite B39-F (and (<= I39 999999999999) (>= I39 (- 999999999999))) (= I39 0)))
(assert (ite B40-F (and (<= I40 99999999999999) (>= I40 (- 99999999999999))) (= I40 0)))
(assert (ite B43-F (and (<= I43 999999999999) (>= I43 (- 999999999999))) (= I43 0)))
(assert (ite B44-F (and (<= I44 999999999999) (>= I44 (- 999999999999))) (= I44 0)))
(assert (ite B45-F (and (<= I45 99999999999999) (>= I45 (- 99999999999999))) (= I45 0)))
(assert (ite B48-F (and (<= I48 999999999999) (>= I48 (- 999999999999))) (= I48 0)))
(assert (ite B49-F true false))
(assert (ite B50-F (and (<= I50 99999999999999) (>= I50 (- 99999999999999))) (= I50 0)))
(assert (ite B91-F true false))
(assert (ite B90-F true false))
(assert (ite B88-F (and (<= I88 99999999999999) (>= I88 (- 9999999999999))) (= I88 0)))
(assert (ite B89-F (and (<= I89 99999999999999) (>= I89 (- 9999999999999))) (= I89 0)))
(assert (ite B92-F true false))
(assert (ite B94-F (and (<= I94 99999999999999) (>= I94 (- 9999999999999))) (= I94 0)))
(assert (ite B93-F (and (<= I93 99999999999999) (>= I93 (- 9999999999999))) (= I93 0)))
(assert (ite B95-F (and (<= I95 99999999999999) (>= I95 (- 9999999999999))) (= I95 0)))
(assert (ite B96-F true false))
(assert (ite B97-F (and (<= I97 99999999999999) (>= I97 (- 9999999999999))) (= I97 0)))
(assert (ite B98-F (and (<= I98 99999999999999) (>= I98 (- 9999999999999))) (= I98 0)))
(assert (ite B101-F true false))
(assert (ite B99-F (and (<= I99 99999999999999) (>= I99 (- 9999999999999))) (= I99 0)))
(assert (ite B100-F (and (<= I100 99999999999999) (>= I100 (- 9999999999999))) (= I100 0)))
(assert (ite B102-F (and (<= I102 99999999999999) (>= I102 (- 9999999999999))) (= I102 0)))
(assert (and (<= I103 99999999999999) (>= I103 (- 9999999999999))))
(set-info :base-constraint-type |domainconstraints date-fields|)
(assert (and (ite B84-F (and (> I84-y 1900) (< I84-y 2100)) (= I84-y 0)) (ite B84-F (and (> I84-m 0) (<= I84-m 12)) (= I84-m 0)) (ite B84-F (and (> I84-d 0) (<= I84-d (ite (or (= I84-m 0) (= I84-m 1) (= I84-m 3) (= I84-m 5) (= I84-m 7) (= I84-m 8) (= I84-m 10) (= I84-m 12)) 31 (ite (or (= I84-m 4) (= I84-m 6) (= I84-m 9) (= I84-m 11)) 30 (ite (= (mod I84-y 4) 0) 29 28))))) (= I84-d 0))))
(assert (ite B7-F (and (> I7-y 1900) (< I7-y 2100)) (= I7-y 0)))
(assert (and (ite B53-F (and (> I53-y 1900) (< I53-y 2100)) (= I53-y 0)) (ite B53-F (and (> I53-m 0) (<= I53-m 12)) (= I53-m 0)) (ite B53-F (and (> I53-d 0) (<= I53-d (ite (or (= I53-m 0) (= I53-m 1) (= I53-m 3) (= I53-m 5) (= I53-m 7) (= I53-m 8) (= I53-m 10) (= I53-m 12)) 31 (ite (or (= I53-m 4) (= I53-m 6) (= I53-m 9) (= I53-m 11)) 30 (ite (= (mod I53-y 4) 0) 29 28))))) (= I53-d 0))))
(assert (and (> I52-y 1900) (< I52-y 2100) (> I52-m 0) (<= I52-m 12) (> I52-d 0) (<= I52-d (ite (or (= I52-m 0) (= I52-m 1) (= I52-m 3) (= I52-m 5) (= I52-m 7) (= I52-m 8) (= I52-m 10) (= I52-m 12)) 31 (ite (or (= I52-m 4) (= I52-m 6) (= I52-m 9) (= I52-m 11)) 30 (ite (= (mod I52-y 4) 0) 29 28))))))
(assert (and (ite B54-F (and (> I54-y 1900) (< I54-y 2100)) (= I54-y 0)) (ite B54-F (and (> I54-m 0) (<= I54-m 12)) (= I54-m 0)) (ite B54-F (and (> I54-d 0) (<= I54-d (ite (or (= I54-m 0) (= I54-m 1) (= I54-m 3) (= I54-m 5) (= I54-m 7) (= I54-m 8) (= I54-m 10) (= I54-m 12)) 31 (ite (or (= I54-m 4) (= I54-m 6) (= I54-m 9) (= I54-m 11)) 30 (ite (= (mod I54-y 4) 0) 29 28))))) (= I54-d 0))))
(assert (and (ite B65-F (and (> I65-y 1900) (< I65-y 2100)) (= I65-y 0)) (ite B65-F (and (> I65-m 0) (<= I65-m 12)) (= I65-m 0)) (ite B65-F (and (> I65-d 0) (<= I65-d (ite (or (= I65-m 0) (= I65-m 1) (= I65-m 3) (= I65-m 5) (= I65-m 7) (= I65-m 8) (= I65-m 10) (= I65-m 12)) 31 (ite (or (= I65-m 4) (= I65-m 6) (= I65-m 9) (= I65-m 11)) 30 (ite (= (mod I65-y 4) 0) 29 28))))) (= I65-d 0))))
(assert (and (ite B21-F (and (> I21-y 1900) (< I21-y 2100)) (= I21-y 0)) (ite B21-F (and (> I21-m 0) (<= I21-m 12)) (= I21-m 0)) (ite B21-F (and (> I21-d 0) (<= I21-d (ite (or (= I21-m 0) (= I21-m 1) (= I21-m 3) (= I21-m 5) (= I21-m 7) (= I21-m 8) (= I21-m 10) (= I21-m 12)) 31 (ite (or (= I21-m 4) (= I21-m 6) (= I21-m 9) (= I21-m 11)) 30 (ite (= (mod I21-y 4) 0) 29 28))))) (= I21-d 0))))
(assert (and (ite B20-F (and (> I20-y 1900) (< I20-y 2100)) (= I20-y 0)) (ite B20-F (and (> I20-m 0) (<= I20-m 12)) (= I20-m 0)) (ite B20-F (and (> I20-d 0) (<= I20-d (ite (or (= I20-m 0) (= I20-m 1) (= I20-m 3) (= I20-m 5) (= I20-m 7) (= I20-m 8) (= I20-m 10) (= I20-m 12)) 31 (ite (or (= I20-m 4) (= I20-m 6) (= I20-m 9) (= I20-m 11)) 30 (ite (= (mod I20-y 4) 0) 29 28))))) (= I20-d 0))))
(assert (or (< I19-s-y I19-e-y) (and (= I19-s-y I19-e-y) (< I19-s-m I19-e-m)) (and (= I19-s-y I19-e-y) (= I19-s-m I19-e-m) (<= I19-s-d I19-e-d))))
(assert (=> B19-F (and (>= I19-e-d 1) (<= I19-e-d (ite (or (= I19-e-m 0) (= I19-e-m 1) (= I19-e-m 3) (= I19-e-m 5) (= I19-e-m 7) (= I19-e-m 8) (= I19-e-m 10) (= I19-e-m 12)) 31 (ite (or (= I19-e-m 4) (= I19-e-m 6) (= I19-e-m 9) (= I19-e-m 11)) 30 (ite (= (mod I19-e-y 4) 0) 29 28)))))))
(assert (=> B19-F (and (>= I19-e-m 1) (<= I19-e-m 12))))
(assert (=> B19-F (and (>= I19-e-y 1901) (<= I19-e-y 2099))))
(assert (=> B19-F (and (>= I19-s-d 1) (<= I19-s-d (ite (or (= I19-s-m 0) (= I19-s-m 1) (= I19-s-m 3) (= I19-s-m 5) (= I19-s-m 7) (= I19-s-m 8) (= I19-s-m 10) (= I19-s-m 12)) 31 (ite (or (= I19-s-m 4) (= I19-s-m 6) (= I19-s-m 9) (= I19-s-m 11)) 30 (ite (= (mod I19-s-y 4) 0) 29 28)))))))
(assert (=> B19-F (and (>= I19-s-m 1) (<= I19-s-m 12))))
(assert (=> B19-F (and (>= I19-s-y 1901) (<= I19-s-y 2099))))
(assert (and (ite B35-F (and (> I35-y 1900) (< I35-y 2100)) (= I35-y 0)) (ite B35-F (and (> I35-m 0) (<= I35-m 12)) (= I35-m 0)) (ite B35-F (and (> I35-d 0) (<= I35-d (ite (or (= I35-m 0) (= I35-m 1) (= I35-m 3) (= I35-m 5) (= I35-m 7) (= I35-m 8) (= I35-m 10) (= I35-m 12)) 31 (ite (or (= I35-m 4) (= I35-m 6) (= I35-m 9) (= I35-m 11)) 30 (ite (= (mod I35-y 4) 0) 29 28))))) (= I35-d 0))))
(assert (and (ite B34-F (and (> I34-y 1900) (< I34-y 2100)) (= I34-y 0)) (ite B34-F (and (> I34-m 0) (<= I34-m 12)) (= I34-m 0)) (ite B34-F (and (> I34-d 0) (<= I34-d (ite (or (= I34-m 0) (= I34-m 1) (= I34-m 3) (= I34-m 5) (= I34-m 7) (= I34-m 8) (= I34-m 10) (= I34-m 12)) 31 (ite (or (= I34-m 4) (= I34-m 6) (= I34-m 9) (= I34-m 11)) 30 (ite (= (mod I34-y 4) 0) 29 28))))) (= I34-d 0))))
(assert (or (< I33-s-y I33-e-y) (and (= I33-s-y I33-e-y) (< I33-s-m I33-e-m)) (and (= I33-s-y I33-e-y) (= I33-s-m I33-e-m) (<= I33-s-d I33-e-d))))
(assert (=> B33-F (and (>= I33-e-d 1) (<= I33-e-d (ite (or (= I33-e-m 0) (= I33-e-m 1) (= I33-e-m 3) (= I33-e-m 5) (= I33-e-m 7) (= I33-e-m 8) (= I33-e-m 10) (= I33-e-m 12)) 31 (ite (or (= I33-e-m 4) (= I33-e-m 6) (= I33-e-m 9) (= I33-e-m 11)) 30 (ite (= (mod I33-e-y 4) 0) 29 28)))))))
(assert (=> B33-F (and (>= I33-e-m 1) (<= I33-e-m 12))))
(assert (=> B33-F (and (>= I33-e-y 1901) (<= I33-e-y 2099))))
(assert (=> B33-F (and (>= I33-s-d 1) (<= I33-s-d (ite (or (= I33-s-m 0) (= I33-s-m 1) (= I33-s-m 3) (= I33-s-m 5) (= I33-s-m 7) (= I33-s-m 8) (= I33-s-m 10) (= I33-s-m 12)) 31 (ite (or (= I33-s-m 4) (= I33-s-m 6) (= I33-s-m 9) (= I33-s-m 11)) 30 (ite (= (mod I33-s-y 4) 0) 29 28)))))))
(assert (=> B33-F (and (>= I33-s-m 1) (<= I33-s-m 12))))
(assert (=> B33-F (and (>= I33-s-y 1901) (<= I33-s-y 2099))))
(set-info :base-constraint-type |domainconstraints string fields|)
(assert (and (str.in_re S51-S (re.+ (re.range "0" "9"))) (>= (str.len S51-S) 4) (<= (str.len S51-S) 4)))
(set-info :base-constraint-type |domainconstraints index-based string fields|)
(assert (or (= S2-S "0") (= S2-S "1")))
(assert (ite B8-F (or (= S8-S "11") (= S8-S "01") (= S8-S "12") (= S8-S "02") (= S8-S "03") (= S8-S "04") (= S8-S "05") (= S8-S "06") (= S8-S "07") (= S8-S "08") (= S8-S "09") (= S8-S "10")) (= S8-S "")))
(assert (or (= S1-S "2216060427666") (= S1-S "2815094023008") (= S1-S "1060048649864") (= S1-S "2348008413417") (= S1-S "2702024686052") (= S1-S "3207051220872") (= S1-S "1123012960769") (= S1-S "5103096558745") (= S1-S "2632041436639") (= S1-S "3103071321727") (= S1-S "3062087900803") (= S1-S "9170050074951") (= S1-S "4084068125545") (= S1-S "2460083378687") (= S1-S "2189063488000")))
(assert (ite B3-F (or (= S3-S "2216060427666") (= S3-S "2815094023008") (= S3-S "1060048649864") (= S3-S "2348008413417") (= S3-S "2702024686052") (= S3-S "3207051220872") (= S3-S "1123012960769") (= S3-S "5103096558745") (= S3-S "2632041436639") (= S3-S "3103071321727") (= S3-S "3062087900803") (= S3-S "9170050074951") (= S3-S "4084068125545") (= S3-S "2460083378687") (= S3-S "2189063488000")) (= S3-S "")))
(set-info :base-constraint-type |constraints from validation-rules|)
(assert (not (and B87-F B86-F (distinct I86 0) (distinct I87 (div (* I86 15) 100)))))
(assert (not (and B84-F (or (< I84-y 2025) (> I84-y 2025)))))
(assert (not (and (or B106-F B105-F) (not (and B106-F B105-F)))))
(assert (not (distinct 121012102 (+ I11 I14 I17 I30 I39 I44 I58 I63 I70 I75 I80 (- 1000000000004)))))
(assert (not (distinct I83 (+ I12 I15 I18 I31 I40 I45 I50 I64 I71 I76 I81 (- 527267102)))))
(assert (not (and B7-F (or (< I7-y 2025) (> I7-y 2025)))))
(assert (not (and B53-F (not B54-F))))
(assert (not (and B53-F (or (< I53-y I52-y) (and (= I53-y I52-y) (< I53-m I52-m)) (and (= I53-y I52-y) (= I53-m I52-m) (< I53-d I52-d)) (and (= I53-y I52-y) (= I53-m I52-m) (= I53-d I52-d))))))
(assert (not (and B53-F (< I53-y (str.to_int (str.substr S51-S 0 4))))))
(assert (not (and B53-F B54-F (or (< I53-y I54-y) (and (= I53-y I54-y) (< I53-m I54-m)) (and (= I53-y I54-y) (= I53-m I54-m) (< I53-d I54-d))))))
(assert (not (and B53-F (or (< I53-y (ite B7-F I7-y 0)) (and (= I53-y (ite B7-F I7-y 0)) (< I53-m (str.to_int (ite B8-F S8-S ""))))))))
(assert (not (and B54-F (< I54-y 2023))))
(assert (not (distinct I52-y (str.to_int (str.substr S51-S 0 4)))))
(assert (not (or (> I52-y (ite B7-F I7-y 0)) (and (= I52-y (ite B7-F I7-y 0)) (> I52-m (str.to_int (ite B8-F S8-S "")))))))
(assert (not (> (str.to_int (str.substr S51-S 0 4)) 2025)))
(assert (not (or (and (or (< I52-y 2022) (and (= I52-y 2022) (< I52-m 10)) (and (= I52-y 2022) (= I52-m 10) (< I52-d 1))) (< (str.to_int (str.substr S51-S 0 4)) 2025)) (and (or (> I52-y 2022) (and (= I52-y 2022) (> I52-m 10)) (and (= I52-y 2022) (= I52-m 10) (> I52-d 1)) (and (= I52-y 2022) (= I52-m 10) (= I52-d 1))) (or (and (< (str.to_int (str.substr S51-S 0 4)) 2025) (= (str.to_int (str.substr S51-S 0 4)) 2024) (>= (str.to_int (ite B8-F S8-S "")) 5) (<= (str.to_int (ite B8-F S8-S "")) 12)) (and (< (str.to_int (str.substr S51-S 0 4)) 2025) (distinct (str.to_int (str.substr S51-S 0 4)) 2024)))))))
(assert (not (or (and (= I52-y (ite B7-F I7-y 0)) (< I52-m (- (str.to_int (ite B8-F S8-S "")) 4))) (and (distinct I52-y (ite B7-F I7-y 0)) (< I52-y (- (ite B7-F I7-y 0) 1))) (and (distinct I52-y (ite B7-F I7-y 0)) (= I52-y (- (ite B7-F I7-y 0) 1)) (> I52-m 8) (< I52-m (- (+ (str.to_int (ite B8-F S8-S "")) 12) 4))) (and (distinct I52-y (ite B7-F I7-y 0)) (= I52-y (- (ite B7-F I7-y 0) 1)) (<= I52-m 8)))))
(assert (not (or (= I58 0) (and (distinct I62 0) (= I63 0)))))
(assert (not (and B58-F B59-F (> (ite (>= (- (- 527267151) (div (* I58 55) 10)) 0) (- (- 527267151) (div (* I58 55) 10)) (- (- (- 527267151) (div (* I58 55) 10)))) 100))))
(assert (not (and (or B56-F B57-F B58-F B59-F) (not (and B56-F B57-F B58-F B59-F)))))
(assert (not (or (> (* I58 100) 85) (> (* I63 100) (+ (* I62 15) 100)))))
(assert (not (and B63-F B64-F (> (ite (>= (- I64 (div (* I63 55) 10)) 0) (- I64 (div (* I63 55) 10)) (- (- I64 (div (* I63 55) 10)))) 100))))
(assert (not (and (or B61-F B62-F B63-F B64-F) (not (and B61-F B62-F B63-F B64-F)))))
(assert (not (and (not (and B66-F B65-F)) (or B67-F B72-F B77-F))))
(assert (not (and (or B66-F B65-F) (not B67-F) (not B72-F) (not B77-F))))
(assert (not (and (or B69-F B74-F B79-F) (or (and (distinct I69 0) (= I70 0)) (and (distinct I74 0) (= I75 0)) (and (distinct I79 0) (= I80 0))))))
(assert (not (and B70-F B71-F (> (ite (>= (- I71 (div (* I70 55) 10)) 0) (- I71 (div (* I70 55) 10)) (- (- I71 (div (* I70 55) 10)))) 100))))
(assert (not (and (or B68-F B69-F B70-F B71-F) (not (and B68-F B69-F B70-F B71-F)))))
(assert (not (and (or B70-F B75-F B80-F) (or (> (* I70 100) (+ (* I69 15) 100)) (> (* I75 100) (+ (* I74 15) 100)) (> (* I80 100) (+ (* I79 15) 100))))))
(assert (not (and B75-F B76-F (> (ite (>= (- I76 (div (* I75 55) 10)) 0) (- I76 (div (* I75 55) 10)) (- (- I76 (div (* I75 55) 10)))) 100))))
(assert (not (and (or B73-F B74-F B75-F B76-F) (not (and B73-F B74-F B75-F B76-F)))))
(assert (not (and B80-F B81-F (> (ite (>= (- I81 (div (* I80 55) 10)) 0) (- I81 (div (* I80 55) 10)) (- (- I81 (div (* I80 55) 10)))) 100))))
(assert (not (and (or B78-F B79-F B80-F B81-F) (not (and B78-F B79-F B80-F B81-F)))))
(assert (not (and B65-F (or (> I65-y (ite B7-F I7-y 0)) (and (> I65-m (str.to_int (ite B8-F S8-S ""))) (= I65-y (ite B7-F I7-y 0)))))))
(assert (not (and B21-F B20-F (or (> I21-y I20-y) (and (= I21-y I20-y) (> I21-m I20-m)) (and (= I21-y I20-y) (= I21-m I20-m) (> I21-d I20-d))))))
(assert (not (and B20-F (or (distinct I20-y (ite B7-F I7-y 0)) (distinct I20-m (str.to_int (ite B8-F S8-S "")))))))
(assert (not (and B20-F (< I20-y 2025))))
(assert (not (and (not (and B21-F B20-F B19-F)) (or B22-F B27-F))))
(assert (not (and (or B21-F B20-F B19-F) (not B22-F) (not B27-F))))
(assert (not (and (or B24-F B29-F) (distinct I29 0) (= I30 0))))
(assert (not (and (or B23-F B24-F B25-F B26-F) (not (and B23-F B24-F B25-F B26-F)))))
(assert (not (and (or B25-F B30-F) (> (* I30 100) (+ (* I29 15) 100)))))
(assert (not (and B30-F B31-F (> (ite (>= (- I31 (div (* I30 55) 10)) 0) (- I31 (div (* I30 55) 10)) (- (- I31 (div (* I30 55) 10)))) 100))))
(assert (not (and (or B28-F B29-F B30-F B31-F) (not (and B28-F B29-F B30-F B31-F)))))
(assert (not (and B19-F B20-F (or (> I19-e-y I20-y) (and (= I19-e-y I20-y) (> I19-e-m I20-m)) (and (= I19-e-y I20-y) (= I19-e-m I20-m) (> I19-e-d I20-d))))))
(assert (not (and B19-F (not B20-F))))
(assert (not (and B19-F (or (< I19-s-y (- I19-e-y 1)) (and (= I19-s-y (- I19-e-y 1)) (< I19-s-m I19-e-m)) (and (= I19-s-y (- I19-e-y 1)) (= I19-s-m I19-e-m) (< I19-s-d (+ I19-e-d 1)))))))
(assert (not (and B35-F B34-F (or (> I35-y I34-y) (and (= I35-y I34-y) (> I35-m I34-m)) (and (= I35-y I34-y) (= I35-m I34-m) (> I35-d I34-d))))))
(assert (not (and B34-F (or (distinct I34-y (ite B7-F I7-y 0)) (distinct I34-m (str.to_int (ite B8-F S8-S "")))))))
(assert (not (and B34-F (< I34-y 2025))))
(assert (not (and (not (and B35-F B34-F B33-F)) (or B36-F B41-F B46-F))))
(assert (not (and (or B35-F B34-F B33-F) (not B36-F) (not B41-F) (not B46-F))))
(assert (not (and (or B38-F B43-F B48-F) (or (and (distinct I38 0) (= I39 0)) (and (distinct I43 0) (= I44 0))))))
(assert (not (and B39-F B40-F (> (ite (>= (- I40 (div (* I39 55) 10)) 0) (- I40 (div (* I39 55) 10)) (- (- I40 (div (* I39 55) 10)))) 100))))
(assert (not (and (or B37-F B38-F B39-F B40-F) (not (and B37-F B38-F B39-F B40-F)))))
(assert (not (and (or B39-F B44-F B49-F) (or (> (* I39 100) (+ (* I38 15) 100)) (> (* I44 100) (+ (* I43 15) 100)) (> (- 99999999999900) (+ (* I48 15) 100))))))
(assert (not (and B44-F B45-F (> (ite (>= (- I45 (div (* I44 55) 10)) 0) (- I45 (div (* I44 55) 10)) (- (- I45 (div (* I44 55) 10)))) 100))))
(assert (not (and (or B42-F B43-F B44-F B45-F) (not (and B42-F B43-F B44-F B45-F)))))
(assert (not (and B49-F B50-F (> (ite (>= (- I50 (- 5499999999995)) 0) (- I50 (- 5499999999995)) (- (- I50 (- 5499999999995)))) 100))))
(assert (not (and (or B47-F B48-F B49-F B50-F) (not (and B47-F B48-F B49-F B50-F)))))
(assert (not (and B33-F B34-F (or (> I33-e-y I34-y) (and (= I33-e-y I34-y) (> I33-e-m I34-m)) (and (= I33-e-y I34-y) (= I33-e-m I34-m) (> I33-e-d I34-d))))))
(assert (not (and B33-F (not B34-F))))
(assert (not (and B33-F (or (< I33-s-y (- I33-e-y 1)) (and (= I33-s-y (- I33-e-y 1)) (< I33-s-m I33-e-m)) (and (= I33-s-y (- I33-e-y 1)) (= I33-s-m I33-e-m) (< I33-s-d (+ I33-e-d 1)))))))
(assert (not B84-F))
(assert (and B7-F B8-F))
(assert (not (and B7-F B8-F (or (< 2026 I7-y) (and (= 2026 I7-y) (<= 6 (str.to_int S8-S)))))))
(assert (not (and B7-F B8-F (or (< 2027 I7-y) (and (= 2027 I7-y) (<= 6 (str.to_int S8-S)))))))
(assert (not (and B108-F (not (and B110-F B111-F)))))
(assert (not (and (not B108-F) (or B110-F B111-F))))
(assert (not (and B3-F (= S2-S "0"))))
(assert (not (and B3-F (= S3-S S1-S))))
(assert (not (and (or B91-F B90-F B92-F B88-F B89-F B93-F B94-F B95-F B96-F B97-F B98-F B101-F B99-F B100-F B102-F) (distinct I103 (+ I88 I89 I93 I94 I95 I97 I98 I99 I100 I102 99999171202823)))))
(assert (not (and (not B91-F) (not B90-F) (not B92-F) (not B88-F) (not B89-F) (not B93-F) (not B94-F) (not B95-F) (not B96-F) (not B97-F) (not B98-F) (not B101-F) (not B99-F) (not B100-F) (not B102-F))))
(assert (not (distinct I103 12101210200)))
(set-info :major-phase |control constraints|)
(push 1)
(assert B111-F)
(set-info :status sat)
(check-sat)
(push 1)
(assert B28-F)
(set-info :status sat)
(check-sat)
(push 1)
(assert B43-F)
(set-info :status sat)
(check-sat)
(push 1)
(assert B37-F)
(set-info :status sat)
(check-sat)
(push 1)
(assert B20-F)
(set-info :status sat)
(check-sat)
(push 1)
(assert B31-F)
(set-info :status sat)
(check-sat)
(push 1)
(assert B79-F)
(set-info :status sat)
(check-sat)
(push 1)
(assert B30-F)
(set-info :status sat)
(check-sat)
(push 1)
(assert B78-F)
(set-info :status sat)
(check-sat)
(push 1)
(assert B74-F)
(set-info :status sat)
(check-sat)
(push 1)
(assert B48-F)
(set-info :status sat)
(check-sat)
(push 1)
(assert B66-F)
(set-info :status sat)
(check-sat)
(push 1)
(assert B56-F)
(set-info :status sat)
(check-sat)
(push 1)
(assert B93-F)
(set-info :status sat)
(check-sat)
(push 1)
(assert B94-F)
(set-info :status sat)
(check-sat)
(push 1)
(assert B6-F)
(set-info :status sat)
(check-sat)
(push 1)
(assert B19-F)
(set-info :status sat)
(check-sat)
(push 1)
(assert B113-F)
(set-info :status sat)
(check-sat)
(push 1)
(assert B44-F)
(set-info :status sat)
(check-sat)
(push 1)
(assert B75-F)
(set-info :status sat)
(check-sat)
(push 1)
(assert B64-F)
(set-info :status sat)
(check-sat)
(push 1)
(assert B4-F)
(set-info :status sat)
(check-sat)
(push 1)
(assert B45-F)
(set-info :status sat)
(check-sat)
(push 1)
(assert B76-F)
(set-info :status sat)
(check-sat)
(push 1)
(assert B47-F)
(set-info :status sat)
(check-sat)
(push 1)
(assert B21-F)
(set-info :status sat)
(check-sat)
(push 1)
(assert B99-F)
(set-info :status sat)
(check-sat)
(push 1)
(assert B100-F)
(set-info :status sat)
(check-sat)
(push 1)
(assert B23-F)
(set-info :status sat)
(check-sat)
(push 1)
(assert B88-F)
(set-info :status sat)
(check-sat)
(push 1)
(assert B89-F)
(set-info :status sat)
(check-sat)
(push 1)
(assert B81-F)
(set-info :status sat)
(check-sat)
(push 1)
(assert B35-F)
(set-info :status sat)
(check-sat)
(push 1)
(assert B53-F)
(set-info :status sat)
(check-sat)
(push 1)
(assert B112-F)
(set-info :status sat)
(check-sat)
(push 1)
(assert B110-F)
(set-info :status sat)
(check-sat)
(push 1)
(assert B34-F)
(set-info :status sat)
(check-sat)
(push 1)
(assert B8-F)
(set-info :status sat)
(check-sat)
(push 1)
(assert B108-F)
(set-info :status sat)
(check-sat)
(push 1)
(assert B106-F)
(set-info :status sat)
(check-sat)
(push 1)
(assert B33-F)
(set-info :status sat)
(check-sat)
(push 1)
(assert B102-F)
(set-info :status sat)
(check-sat)
(push 1)
(assert B71-F)
(set-info :status sat)
(check-sat)
(push 1)
(assert B70-F)
(set-info :status sat)
(check-sat)
(push 1)
(assert B68-F)
(set-info :status sat)
(check-sat)
(push 1)
(assert B114-F)
(set-info :status sat)
(check-sat)
(push 1)
(assert B42-F)
(set-info :status sat)
(check-sat)
(push 1)
(assert B5-F)
(set-info :status sat)
(check-sat)
(push 1)
(assert B7-F)
(set-info :status sat)
(check-sat)
(push 1)
(assert B61-F)
(set-info :status sat)
(check-sat)
(push 1)
(assert B84-F)
(set-info :status unsat)
(check-sat)
(pop 1)
(push 1)
(assert B3-F)
(set-info :status sat)
(check-sat)
(push 1)
(assert B9-F)
(set-info :status sat)
(check-sat)
(push 1)
(assert B73-F)
(set-info :status sat)
(check-sat)
(push 1)
(assert B105-F)
(set-info :status sat)
(check-sat)
(push 1)
(assert B59-F)
(set-info :status sat)
(check-sat)
(push 1)
(assert B24-F)
(set-info :status sat)
(check-sat)
(push 1)
(assert B49-F)
(set-info :status sat)
(check-sat)
(push 1)
(assert B50-F)
(set-info :status sat)
(check-sat)
(push 1)
(assert B101-F)
(set-info :status sat)
(check-sat)
(push 1)
(assert B86-F)
(set-info :status unsat)
(check-sat)
(pop 1)
(push 1)
(assert B26-F)
(set-info :status sat)
(check-sat)
(push 1)
(assert B80-F)
(set-info :status sat)
(check-sat)
(push 1)
(assert B25-F)
(set-info :status sat)
(check-sat)
(push 1)
(assert B97-F)
(set-info :status sat)
(check-sat)
(push 1)
(assert B62-F)
(set-info :status sat)
(check-sat)
(push 1)
(assert B29-F)
(set-info :status sat)
(check-sat)
(push 1)
(assert B92-F)
(set-info :status sat)
(check-sat)
(push 1)
(assert B96-F)
(set-info :status sat)
(check-sat)
(push 1)
(assert B91-F)
(set-info :status sat)
(check-sat)
(push 1)
(assert B90-F)
(set-info :status sat)
(check-sat)
(push 1)
(assert B63-F)
(set-info :status sat)
(check-sat)
(push 1)
(assert B82-F)
(set-info :status sat)
(check-sat)
(push 1)
(assert B57-F)
(set-info :status sat)
(check-sat)
(push 1)
(assert B39-F)
(set-info :status sat)
(check-sat)
(push 1)
(assert B38-F)
(set-info :status sat)
(check-sat)
(push 1)
(assert B87-F)
(set-info :status unsat)
(check-sat)
(pop 1)
(push 1)
(assert B40-F)
(set-info :status sat)
(check-sat)
(push 1)
(assert B65-F)
(set-info :status sat)
(check-sat)
(push 1)
(assert B98-F)
(set-info :status sat)
(check-sat)
(push 1)
(assert B69-F)
(set-info :status sat)
(check-sat)
(push 1)
(assert B58-F)
(set-info :status sat)
(check-sat)
(push 1)
(assert B95-F)
(set-info :status sat)
(check-sat)
(push 1)
(assert B54-F)
(set-info :status sat)
(check-sat)
(exit)

